benchmarks_vrp/CMT4/tsp_classic/CMT4_0.vrp
NAME: CMT4_0
TYPE: CVRP
COMMENT: 1028.42 - Cluster Nr.0
DIMENSION: 11
CAPACITY: 200
EDGE_WEIGHT_TYPE: EUC_2D
NODE_COORD_TYPE: TWOD_COORDS
NODE_COORD_SECTION: 
4 15 19
3 10 17
5 18 18
1 4 18
2 11 14
6 15 10
8 10 20
10 5 5
9 13 13
11 35 35
7 5 6
DEPOT_SECTION: 
11
-1
DEMAND_SECTION: 
1 35
10 16
11 0
7 7
6 20
2 18
5 17
3 27
8 19
4 1
9 9
EOF
