benchmarks_vrp/CMT4/tsp_classic/CMT4_0.tour
NAME: CMT4_0 solution
TYPE: TOUR
TOUR_SECTION:
11 5 4 3 2 9 6 10 7 1 8 -1
-1
EOF